NAME : n100w100.005.572.tour
COMMENT : Length = 572
COMMENT : Found by LKH [Keld Helsgaun] Tue May  2 05:19:09 2017
TYPE : TOUR
DIMENSION : 101
TOUR_SECTION
1
7
57
69
82
3
46
87
56
91
73
31
99
34
22
27
79
29
67
30
71
78
23
61
48
10
62
58
16
5
90
9
65
93
20
6
12
40
86
47
21
32
50
96
38
63
26
13
45
17
53
81
97
2
52
24
15
18
42
54
75
59
70
98
11
44
89
95
55
25
76
41
68
64
84
72
92
43
94
36
19
85
35
88
83
51
77
66
100
60
80
39
14
4
49
8
28
74
37
33
101
-1
EOF
